20180504 160 0 0 0
20170615 80 0 0 0
20160519 120 10000 0 0
20150519 200 0 0 0
20140617 300 0 0 0
20130522 100 0 0 0
20120703 60 0 0 0
20070522 40 10000 0 0
20060522 56 10000 0 0
20060303 0 1500 0 0
20050708 350 0 0 0
